0000000000000000
0000000000000000
0000110000110000
0000111001110000
0000000111000000
0000000111000000
0000011001100000
0001110000111000
0001100000011000
0000000000000000
0000000000000000
0000000000000000
0000000000000000
0000000000000000
0000000000000000
0000000000000000